CapLotSizing_PM/src/Instancias/TCHSHT/25i18p2m/NBA09.OUT
 CG ITER, OVMR, OVMRUB =           1  175000.0000000  175000.0000000
 CG ITER, OVMR, OVMRUB =           2  175000.0000000  175000.0000000
 CG ITER, OVMR, OVMRUB =           3  175000.0000000  175000.0000000
 CG ITER, OVMR, OVMRUB =           4  174999.9531250  175000.0000000
 CG ITER, OVMR, OVMRUB =           5  172656.2500000  175000.0000000
 CG ITER, OVMR, OVMRUB =           6  173920.9843750  175000.0000000
 CG ITER, OVMR, OVMRUB =           7  171643.0781250  175000.0000000
 CG ITER, OVMR, OVMRUB =           8  169737.5156250  175000.0000000
 CG ITER, OVMR, OVMRUB =           9  168732.8906250  175000.0000000
 CG ITER, OVMR, OVMRUB =          10  167471.5156250  175000.0000000
 CG ITER, OVMR, OVMRUB =          11  166358.8125000  175000.0000000
 CG ITER, OVMR, OVMRUB =          12  165675.3281250  175000.0000000
 CG ITER, OVMR, OVMRUB =          13  164576.0156250  175000.0000000
 CG ITER, OVMR, OVMRUB =          14  163691.4531250  175000.0000000
 CG ITER, OVMR, OVMRUB =          15  162718.9687500  175000.0000000
 CG ITER, OVMR, OVMRUB =          16  161844.3281250  175000.0000000
 CG ITER, OVMR, OVMRUB =          17  160891.3593750  175000.0000000
 CG ITER, OVMR, OVMRUB =          18  160322.2031250  175000.0000000
 CG ITER, OVMR, OVMRUB =          19  159512.0625000  175000.0000000
 CG ITER, OVMR, OVMRUB =          20  158919.7031250  175000.0000000
 CG ITER, OVMR, OVMRUB =          21  158484.4843750  175000.0000000
 CG ITER, OVMR, OVMRUB =          22  157958.9218750  175000.0000000
 CG ITER, OVMR, OVMRUB =          23  157563.5937500  175000.0000000
 CG ITER, OVMR, OVMRUB =          24  157065.7031250  175000.0000000
 CG ITER, OVMR, OVMRUB =          25  156688.9375000  175000.0000000
 CG ITER, OVMR, OVMRUB =          26  156169.9062500  175000.0000000
 CG ITER, OVMR, OVMRUB =          27  155903.7187500  175000.0000000
 CG ITER, OVMR, OVMRUB =          28  155568.5156250  175000.0000000
 CG ITER, OVMR, OVMRUB =          29  155317.8281250  175000.0000000
 CG ITER, OVMR, OVMRUB =          30  155033.7187500  175000.0000000
 CG ITER, OVMR, OVMRUB =          31  154719.3906250  175000.0000000
 CG ITER, OVMR, OVMRUB =          32  154408.0625000  175000.0000000
 CG ITER, OVMR, OVMRUB =          33  154150.1562500  175000.0000000
 CG ITER, OVMR, OVMRUB =          34  153887.5937500  175000.0000000
 CG ITER, OVMR, OVMRUB =          35  153632.4375000  175000.0000000
 CG ITER, OVMR, OVMRUB =          36  153394.0937500  175000.0000000
 CG ITER, OVMR, OVMRUB =          37  153116.2187500  175000.0000000
 CG ITER, OVMR, OVMRUB =          38  152873.7343750  175000.0000000
 CG ITER, OVMR, OVMRUB =          39  152655.0156250  175000.0000000
 CG ITER, OVMR, OVMRUB =          40  152503.1250000  175000.0000000
 CG ITER, OVMR, OVMRUB =          41  152339.5000000  175000.0000000
 CG ITER, OVMR, OVMRUB =          42  152097.6250000  175000.0000000
 CG ITER, OVMR, OVMRUB =          43  151947.3437500  175000.0000000
 CG ITER, OVMR, OVMRUB =          44  151787.3906250  175000.0000000
 CG ITER, OVMR, OVMRUB =          45  151622.4531250  175000.0000000
 CG ITER, OVMR, OVMRUB =          46  151475.4218750  175000.0000000
 CG ITER, OVMR, OVMRUB =          47  151366.7656250  175000.0000000
 CG ITER, OVMR, OVMRUB =          48  151249.1875000  175000.0000000
 CG ITER, OVMR, OVMRUB =          49  151232.8281250  175000.0000000
 CG ITER, OVMR, OVMRUB =          50  151109.4843750  175000.0000000
 CG ITER, OVMR, OVMRUB =          51  151056.2656250  175000.0000000
 CG ITER, OVMR, OVMRUB =          52  150966.0937500  175000.0000000
 CG ITER, OVMR, OVMRUB =          53  150893.4843750  175000.0000000
 CG ITER, OVMR, OVMRUB =          54  150786.9062500  175000.0000000
 CG ITER, OVMR, OVMRUB =          55  150720.0937500  175000.0000000
 CG ITER, OVMR, OVMRUB =          56  150666.5625000  175000.0000000
 CG ITER, OVMR, OVMRUB =          57  150590.0156250  175000.0000000
 CG ITER, OVMR, OVMRUB =          58  150529.6093750  175000.0000000
 CG ITER, OVMR, OVMRUB =          59  150496.6875000  175000.0000000
 CG ITER, OVMR, OVMRUB =          60  150468.7500000  175000.0000000
 CG ITER, OVMR, OVMRUB =          61  150393.4062500  175000.0000000
 CG ITER, OVMR, OVMRUB =          62  150362.4843750  175000.0000000
 CG ITER, OVMR, OVMRUB =          63  150326.0000000  175000.0000000
 CG ITER, OVMR, OVMRUB =          64  150283.1250000  175000.0000000
 CG ITER, OVMR, OVMRUB =          65  150287.8906250  175000.0000000
 CG ITER, OVMR, OVMRUB =          66  150243.0312500  175000.0000000
 CG ITER, OVMR, OVMRUB =          67  150185.6875000  175000.0000000
 CG ITER, OVMR, OVMRUB =          68  150137.8906250  175000.0000000
 CG ITER, OVMR, OVMRUB =          69  150073.7187500  175000.0000000
 CG ITER, OVMR, OVMRUB =          70  150069.2343750  175000.0000000
 CG ITER, OVMR, OVMRUB =          71  150057.9843750  175000.0000000
 CG ITER, OVMR, OVMRUB =          72  150039.9218750  175000.0000000
 CG ITER, OVMR, OVMRUB =          73  150001.0156250  175000.0000000
 CG ITER, OVMR, OVMRUB =          74  149985.8437500  175000.0000000
 CG ITER, OVMR, OVMRUB =          75  149971.3281250  175000.0000000
 CG ITER, OVMR, OVMRUB =          76  149942.3906250  175000.0000000
 CG ITER, OVMR, OVMRUB =          77  149942.5468750  175000.0000000
 CG ITER, OVMR, OVMRUB =          78  149932.6562500  175000.0000000
 CG ITER, OVMR, OVMRUB =          79  149926.9218750  175000.0000000
 CG ITER, OVMR, OVMRUB =          80  149917.0000000  175000.0000000
 CG ITER, OVMR, OVMRUB =          81  149911.8281250  175000.0000000
 CG ITER, OVMR, OVMRUB =          82  149912.7343750  175000.0000000
 CG ITER, OVMR, OVMRUB =          83  149912.1718750  175000.0000000
 CG ITER, OVMR, OVMRUB =          84  149883.2656250  175000.0000000
 CG ITER, OVMR, OVMRUB =          85  149897.2187500  175000.0000000
 CG ITER, OVMR, OVMRUB =          86  149896.4531250  175000.0000000
 CG ITER, OVMR, OVMRUB =          87  149876.0781250  175000.0000000
 CG ITER, OVMR, OVMRUB =          88  149878.5937500  175000.0000000
 CG ITER, OVMR, OVMRUB =          89  149881.9375000  175000.0000000
 CG ITER, OVMR, OVMRUB =          90  149879.3906250  175000.0000000
 CG ITER, OVMR, OVMRUB =          91  149880.3437500  175000.0000000
 CG ITER, OVMR, OVMRUB =          92  149865.9375000  175000.0000000
 CG ITER, OVMR, OVMRUB =          93  149873.7656250  175000.0000000
 CG ITER, OVMR, OVMRUB =          94  149860.5937500  175000.0000000
 CG ITER, OVMR, OVMRUB =          95  149863.1093750  175000.0000000
 CG ITER, OVMR, OVMRUB =          96  149859.7968750  175000.0000000
 CG ITER, OVMR, OVMRUB =          97  149847.2031250  173643.8125000
 CG ITER, OVMR, OVMRUB =          98  149852.3750000  173643.8125000
 CG ITER, OVMR, OVMRUB =          99  149850.6093750  173643.8125000
 CG ITER, OVMR, OVMRUB =         100  149852.2812500  173643.8125000
 CG ITER, OVMR, OVMRUB =         101  149831.9062500  173643.8125000
 CG ITER, OVMR, OVMRUB =         102  149845.5000000  173643.8125000
 CG ITER, OVMR, OVMRUB =         103  149836.7187500  173643.8125000
 CG ITER, OVMR, OVMRUB =         104  149843.4843750  173643.8125000
 CG ITER, OVMR, OVMRUB =         105  149844.7031250  173643.8125000
 CG ITER, OVMR, OVMRUB =         106  149851.6250000  173643.8125000
 CG ITER, OVMR, OVMRUB =         107  149840.7968750  173643.8125000
 CG ITER, OVMR, OVMRUB =         108  149846.2031250  173643.8125000
 CG ITER, OVMR, OVMRUB =         109  149841.3750000  173643.8125000
 CG ITER, OVMR, OVMRUB =         110  149833.7968750  173643.8125000
 CG ITER, OVMR, OVMRUB =         111  149834.9843750  173643.8125000
 CG ITER, OVMR, OVMRUB =         112  149838.2343750  173643.8125000
 CG ITER, OVMR, OVMRUB =         113  149837.9062500  173643.8125000
 CG ITER, OVMR, OVMRUB =         114  149837.5781250  173643.8125000
 CG ITER, OVMR, OVMRUB =         115  149837.5937500  173643.8125000
 CG ITER, OVMR, OVMRUB =         116  149828.7500000  173643.8125000
 CG ITER, OVMR, OVMRUB =         117  149838.8906250  173643.8125000
 CG ITER, OVMR, OVMRUB =         118  149822.9843750  173643.8125000
 CG ITER, OVMR, OVMRUB =         119  149834.0156250  173643.8125000
 CG ITER, OVMR, OVMRUB =         120  149840.0937500  173643.8125000
 CG ITER, OVMR, OVMRUB =         121  149831.4218750  173643.8125000
 CG ITER, OVMR, OVMRUB =         122  149832.5781250  173643.8125000
 CG ITER, OVMR, OVMRUB =         123  149831.7656250  173643.8125000
 CG ITER, OVMR, OVMRUB =         124  149842.0625000  173643.8125000
 CG ITER, OVMR, OVMRUB =         125  149837.1406250  173643.8125000
 CG ITER, OVMR, OVMRUB =         126  149818.1875000  173643.8125000
 CG ITER, OVMR, OVMRUB =         127  149831.1093750  173643.8125000
 CG ITER, OVMR, OVMRUB =         128  149831.6875000  173643.8125000
 CG ITER, OVMR, OVMRUB =         129  149830.1875000  173643.8125000
 CG ITER, OVMR, OVMRUB =         130  149831.9218750  173643.8125000
 CG ITER, OVMR, OVMRUB =         131  149825.7500000  173643.8125000
 CG ITER, OVMR, OVMRUB =         132  149825.7812500  173643.8125000
 CG ITER, OVMR, OVMRUB =         133  149837.8281250  173643.8125000
 CG ITER, OVMR, OVMRUB =         134  149827.9843750  173643.8125000
 CG ITER, OVMR, OVMRUB =         135  149828.8750000  173643.8125000
 CG ITER, OVMR, OVMRUB =         136  149820.0625000  173643.8125000
 CG ITER, OVMR, OVMRUB =         137  149834.1718750  166459.0625000
 CG ITER, OVMR, OVMRUB =         138  149832.9687500  166459.0625000
 CG ITER, OVMR, OVMRUB =         139  149832.2656250  166459.0625000
 CG ITER, OVMR, OVMRUB =         140  149841.2187500  166459.0625000
 CG ITER, OVMR, OVMRUB =         141  149842.5937500  166459.0625000
 CG ITER, OVMR, OVMRUB =         142  149835.6406250  166459.0625000
 CG ITER, OVMR, OVMRUB =         143  149836.6718750  166459.0625000
 CG ITER, OVMR, OVMRUB =         144  149834.9843750  166459.0625000
 CG ITER, OVMR, OVMRUB =         145  149834.9843750  166459.0625000
OVLB =  149834.9843750 OVLUB =  166459.0625000 TIME =     176.3800049
